c uprop, v00.0, 
c reading from data/prog26.c.cnf
c done reading: 0.002824
p cnf 107 456
-57 -62 0
57 62 0
-67 -75 0
67 75 0
-70 -78 0
70 78 0
-57 65 0
57 -65 0
57 -65 -82 0
-65 -82 0
-57 65 82 0
65 82 0
-57 -67 77 0
-65 -67 77 0
-57 -65 77 0
57 67 -77 0
65 67 -77 0
57 65 -77 0
-59 67 -77 0
57 -59 -77 0
-59 65 -77 0
59 -67 77 0
-57 59 77 0
59 -65 77 0
-57 59 -65 -67 0
57 -59 65 67 0
-67 72 -78 0
72 -77 -78 0
-67 72 -77 0
67 -72 78 0
-72 77 78 0
67 -72 77 0
-72 78 -80 0
67 -72 -80 0
-72 77 -80 0
72 -78 80 0
-67 72 80 0
72 -77 80 0
-67 -77 -78 80 0
67 77 78 -80 0
78 -83 0
72 -83 0
-72 -78 83 0
-56 -72 -78 0
-56 72 78 0
56 72 -78 0
56 -72 78 0
54 -82 0
-54 82 0
-53 -54 82 0
-53 -54 0
53 54 -82 0
53 54 0
-59 60 0
-54 -59 60 0
-54 60 0
54 59 -60 0
-52 59 -60 0
-52 54 -60 0
52 -59 60 0
52 60 0
52 -54 60 0
52 -54 -59 0
-57 73 -80 0
-60 73 -80 0
-57 -60 73 0
57 -73 80 0
60 -73 80 0
57 60 -73 0
-51 -73 80 0
-51 57 -73 0
-51 60 -73 0
51 73 -80 0
51 -57 73 0
51 -60 73 0
51 -57 -60 -80 0
-51 57 60 80 0
-56 -67 68 0
-56 68 -73 0
-67 68 -73 0
56 67 -68 0
56 -68 73 0
67 -68 73 0
-50 56 -68 0
-50 67 -68 0
-50 -68 73 0
50 -56 68 0
50 -67 68 0
50 68 -73 0
50 -56 -67 -73 0
-50 56 67 73 0
49 -78 -83 0
49 -68 -83 0
49 -68 -78 0
-49 78 83 0
-49 68 83 0
-49 68 78 0
-48 -49 83 0
-48 -49 78 0
-48 -49 68 0
48 49 -83 0
48 49 -78 0
48 49 -68 0
48 -68 -78 -83 0
-48 68 78 83 0
47 -53 0
-47 53 0
-46 -47 53 0
-46 -47 0
46 47 -53 0
46 47 0
45 -47 -52 0
-45 52 0
-45 47 52 0
-45 47 0
-45 52 -64 0
-45 -64 0
-45 47 -64 0
45 -52 64 0
45 -47 64 0
47 52 -64 0
-45 -51 81 0
51 -81 0
45 51 -81 0
45 -81 0
51 -81 -85 0
-81 -85 0
45 -81 -85 0
-51 81 85 0
-45 81 85 0
45 51 -85 0
-50 86 0
-50 -81 86 0
-81 86 0
50 81 -86 0
50 -86 -87 0
81 -86 -87 0
-50 86 87 0
86 87 0
-81 86 87 0
-50 -81 87 0
-48 -57 88 0
-48 -86 88 0
-57 -86 88 0
48 57 -88 0
48 86 -88 0
57 86 -88 0
48 -88 -89 0
57 -88 -89 0
86 -88 -89 0
-48 88 89 0
-57 88 89 0
-86 88 89 0
-48 -57 -86 89 0
48 57 86 -89 0
-49 -67 90 0
-49 -88 90 0
-67 -88 90 0
49 67 -90 0
49 88 -90 0
67 88 -90 0
49 -90 -91 0
67 -90 -91 0
88 -90 -91 0
-49 90 91 0
-67 90 91 0
-88 90 91 0
-49 -67 -88 91 0
49 67 88 -91 0
78 -92 0
90 -92 0
-78 -90 92 0
-78 -90 -93 0
78 90 -93 0
-78 90 93 0
78 -90 93 0
46 -94 0
-46 94 0
-46 -95 0
46 95 0
-64 96 0
-64 -94 96 0
-94 96 0
64 94 -96 0
64 -96 -97 0
94 -96 -97 0
-64 96 97 0
96 97 0
-94 96 97 0
-64 -94 97 0
-85 -96 98 0
85 -98 0
85 96 -98 0
96 -98 0
85 -98 -99 0
-98 -99 0
96 -98 -99 0
-85 98 99 0
-96 98 99 0
85 96 -99 0
63 -87 -98 0
-63 87 0
-63 87 98 0
-63 98 0
-63 87 -100 0
-63 -100 0
-63 98 -100 0
63 -87 100 0
63 -98 100 0
87 98 -100 0
76 -89 0
-63 76 -89 0
-63 76 0
63 -76 89 0
-76 89 -101 0
63 -76 -101 0
76 -89 101 0
76 101 0
-63 76 101 0
-63 -89 101 0
-57 71 -91 0
71 -76 -91 0
-57 71 -76 0
57 -71 91 0
-71 76 91 0
57 -71 76 0
-71 91 -102 0
57 -71 -102 0
-71 76 -102 0
71 -91 102 0
-57 71 102 0
71 -76 102 0
-57 -76 -91 102 0
57 76 91 -102 0
-67 -93 103 0
-71 -93 103 0
-67 -71 103 0
67 93 -103 0
71 93 -103 0
67 71 -103 0
93 -103 -104 0
67 -103 -104 0
71 -103 -104 0
-93 103 104 0
-67 103 104 0
-71 103 104 0
-67 -71 -93 104 0
67 71 93 -104 0
-78 -92 105 0
-92 -103 105 0
-78 -103 105 0
78 92 -105 0
92 103 -105 0
78 103 -105 0
92 -105 -106 0
78 -105 -106 0
103 -105 -106 0
-92 105 106 0
-78 105 106 0
-103 105 106 0
-78 -92 -103 106 0
78 92 103 -106 0
-84 -95 0
84 95 0
-97 -107 0
97 107 0
-58 -99 0
58 99 0
-79 -100 0
79 100 0
-55 -101 0
55 101 0
-44 -102 0
44 102 0
-43 -104 0
43 104 0
-66 -106 0
66 106 0
-42 -105 0
42 105 0
-40 -41 0
-39 -40 0
39 40 41 0
-38 39 41 0
-38 -39 -41 0
38 39 -41 0
38 -39 41 0
-36 40 0
-36 -37 0
36 37 -40 0
-34 37 -40 0
-34 -37 40 0
34 37 40 0
34 -37 -40 0
-32 36 0
-32 -35 0
32 35 -36 0
-30 35 -36 0
-30 -35 36 0
30 35 36 0
30 -35 -36 0
-28 32 0
-28 -33 0
28 -32 33 0
-26 -32 33 0
-26 32 -33 0
26 32 33 0
26 -32 -33 0
-25 28 0
-25 -31 0
25 -28 31 0
-24 -28 31 0
-24 28 -31 0
24 28 31 0
24 -28 -31 0
-23 25 0
-23 -29 0
23 -25 29 0
-22 -25 29 0
-22 25 -29 0
22 25 29 0
22 -25 -29 0
-21 23 0
-21 -27 0
21 -23 27 0
-20 -23 27 0
-20 23 -27 0
20 23 27 0
20 -23 -27 0
-19 -41 0
-19 -39 0
19 39 41 0
-18 39 41 0
-18 -39 -41 0
18 39 -41 0
18 -39 41 0
-17 19 0
-17 -37 0
17 -19 37 0
-16 -19 37 0
-16 19 -37 0
16 19 37 0
16 -19 -37 0
-15 17 0
-15 -35 0
15 -17 35 0
-14 -17 35 0
-14 17 -35 0
14 17 35 0
14 -17 -35 0
-13 15 0
-13 -33 0
13 -15 33 0
-12 -15 33 0
-12 15 -33 0
12 15 33 0
12 -15 -33 0
-11 13 0
-11 -31 0
11 -13 31 0
-10 -13 31 0
-10 13 -31 0
10 13 31 0
10 -13 -31 0
-9 11 0
-9 -29 0
9 -11 29 0
-8 -11 29 0
-8 11 -29 0
8 11 29 0
8 -11 -29 0
-7 9 0
-7 -27 0
7 -9 27 0
-6 -9 27 0
-6 9 -27 0
6 9 27 0
6 -9 -27 0
-5 95 0
-5 41 0
5 -41 -95 0
41 -95 0
-41 95 0
4 -39 -97 0
4 -5 -97 0
4 -5 -39 0
-4 39 97 0
-4 5 97 0
-4 5 39 0
-4 97 0
-4 39 0
-4 5 0
5 39 97 0
-37 61 -99 0
-4 61 -99 0
-4 -37 61 0
37 -61 99 0
4 -61 99 0
4 37 -61 0
-61 99 0
37 -61 0
4 -61 0
4 37 99 0
-35 74 -100 0
-61 74 -100 0
-35 -61 74 0
35 -74 100 0
61 -74 100 0
35 61 -74 0
74 -100 0
-35 74 0
-61 74 0
-35 -61 -100 0
-33 69 -101 0
69 -74 -101 0
-33 69 -74 0
33 -69 101 0
-69 74 101 0
33 -69 74 0
69 -101 0
-33 69 0
69 -74 0
-33 -74 -101 0
3 -31 -102 0
3 -69 -102 0
3 -31 -69 0
-3 31 102 0
-3 69 102 0
-3 31 69 0
3 -102 0
3 -31 0
3 -69 0
-31 -69 -102 0
2 -29 -104 0
2 -3 -104 0
2 -3 -29 0
-2 29 104 0
-2 3 104 0
-2 3 29 0
2 -104 0
2 -29 0
2 -3 0
-3 -29 -104 0
1 -27 -106 0
1 -2 -106 0
1 -2 -27 0
-1 27 106 0
-1 2 106 0
-1 2 27 0
1 -106 0
1 -27 0
1 -2 0
-2 -27 -106 0
-1 -105 0
1 -105 0
-1 105 0
